p edge 3004 2949
e 1 2
e 1 3
e 1 4
e 1 5
e 1 6
e 1 7
e 1 8
e 1 9
e 1 10
e 1 11
e 1 12
e 1 13
e 1 14
e 1 15
e 1 16
e 1 17
e 1 18
e 1 19
e 1 20
e 1 21
e 1 22
e 1 23
e 1 24
e 1 25
e 1 26
e 1 27
e 1 28
e 1 29
e 1 30
e 1 31
e 1 32
e 1 33
e 1 34
e 1 35
e 1 36
e 1 37
e 1 38
e 1 39
e 1 40
e 1 41
e 1 42
e 1 43
e 1 44
e 1 45
e 1 46
e 1 47
e 1 48
e 1 49
e 1 50
e 1 51
e 1 52
e 1 53
e 1 54
e 1 55
e 1 56
e 1 57
e 1 58
e 1 59
e 1 60
e 61 62
e 61 63
e 61 64
e 61 65
e 61 66
e 61 67
e 61 68
e 61 69
e 61 70
e 61 71
e 61 72
e 61 73
e 61 74
e 61 75
e 61 76
e 61 77
e 61 78
e 61 79
e 61 80
e 61 81
e 61 82
e 61 83
e 84 85
e 84 86
e 84 87
e 84 88
e 84 89
e 84 90
e 84 91
e 84 92
e 84 93
e 84 94
e 84 95
e 84 96
e 84 97
e 84 98
e 84 99
e 84 100
e 84 101
e 84 102
e 84 103
e 84 104
e 84 105
e 84 106
e 84 107
e 84 108
e 84 109
e 84 110
e 84 111
e 84 112
e 84 113
e 84 114
e 84 115
e 84 116
e 84 117
e 84 118
e 84 119
e 84 120
e 84 121
e 84 122
e 84 123
e 84 124
e 84 125
e 84 126
e 84 127
e 84 128
e 84 129
e 84 130
e 84 131
e 84 132
e 84 133
e 84 134
e 84 135
e 84 136
e 84 137
e 84 138
e 84 139
e 84 140
e 84 141
e 84 142
e 84 143
e 84 144
e 84 145
e 84 146
e 147 148
e 147 149
e 147 150
e 147 151
e 147 152
e 147 153
e 147 154
e 147 155
e 147 156
e 147 157
e 147 158
e 147 159
e 147 160
e 147 161
e 147 162
e 147 163
e 147 164
e 147 165
e 147 166
e 147 167
e 147 168
e 147 169
e 147 170
e 147 171
e 147 172
e 147 173
e 147 174
e 147 175
e 147 176
e 147 177
e 147 178
e 147 179
e 147 180
e 147 181
e 147 182
e 147 183
e 147 184
e 147 185
e 147 186
e 147 187
e 147 188
e 147 189
e 147 190
e 147 191
e 147 192
e 147 193
e 147 194
e 147 195
e 147 196
e 147 197
e 147 198
e 147 199
e 147 200
e 147 201
e 147 202
e 147 203
e 204 205
e 204 206
e 204 207
e 204 208
e 204 209
e 204 210
e 204 211
e 204 212
e 204 213
e 204 214
e 204 215
e 204 216
e 204 217
e 204 218
e 204 219
e 204 220
e 204 221
e 204 222
e 204 223
e 204 224
e 204 225
e 204 226
e 204 227
e 204 228
e 204 229
e 204 230
e 204 231
e 204 232
e 204 233
e 204 234
e 204 235
e 204 236
e 204 237
e 204 238
e 204 239
e 204 240
e 204 241
e 204 242
e 204 243
e 204 244
e 204 245
e 204 246
e 204 247
e 204 248
e 204 249
e 204 250
e 204 251
e 204 252
e 204 253
e 204 254
e 204 255
e 204 256
e 204 257
e 204 258
e 204 259
e 204 260
e 204 261
e 204 262
e 204 263
e 204 264
e 204 265
e 204 266
e 204 267
e 204 268
e 204 269
e 204 270
e 204 271
e 204 272
e 204 273
e 204 274
e 204 275
e 204 276
e 204 277
e 204 278
e 204 279
e 204 280
e 204 281
e 204 282
e 204 283
e 204 284
e 204 285
e 204 286
e 204 287
e 204 288
e 204 289
e 204 290
e 204 291
e 204 292
e 293 294
e 293 295
e 293 296
e 293 297
e 293 298
e 293 299
e 293 300
e 293 301
e 293 302
e 293 303
e 293 304
e 293 305
e 293 306
e 293 307
e 293 308
e 293 309
e 293 310
e 293 311
e 293 312
e 293 313
e 293 314
e 293 315
e 293 316
e 293 317
e 293 318
e 293 319
e 293 320
e 293 321
e 293 322
e 293 323
e 293 324
e 293 325
e 293 326
e 293 327
e 293 328
e 293 329
e 293 330
e 293 331
e 293 332
e 293 333
e 334 335
e 334 336
e 334 337
e 334 338
e 334 339
e 334 340
e 334 341
e 334 342
e 334 343
e 334 344
e 334 345
e 334 346
e 334 347
e 334 348
e 334 349
e 334 350
e 334 351
e 334 352
e 334 353
e 334 354
e 334 355
e 334 356
e 334 357
e 334 358
e 334 359
e 334 360
e 334 361
e 334 362
e 334 363
e 334 364
e 334 365
e 334 366
e 334 367
e 334 368
e 334 369
e 334 370
e 334 371
e 334 372
e 334 373
e 334 374
e 334 375
e 334 376
e 334 377
e 334 378
e 334 379
e 334 380
e 334 381
e 334 382
e 334 383
e 334 384
e 334 385
e 334 386
e 334 387
e 334 388
e 334 389
e 334 390
e 334 391
e 334 392
e 334 393
e 394 395
e 394 396
e 394 397
e 394 398
e 394 399
e 394 400
e 394 401
e 394 402
e 394 403
e 394 404
e 394 405
e 394 406
e 394 407
e 394 408
e 394 409
e 394 410
e 394 411
e 394 412
e 394 413
e 394 414
e 394 415
e 394 416
e 394 417
e 394 418
e 394 419
e 394 420
e 394 421
e 394 422
e 394 423
e 394 424
e 394 425
e 394 426
e 394 427
e 394 428
e 394 429
e 394 430
e 394 431
e 394 432
e 394 433
e 394 434
e 394 435
e 394 436
e 394 437
e 394 438
e 394 439
e 394 440
e 394 441
e 394 442
e 394 443
e 394 444
e 394 445
e 394 446
e 394 447
e 394 448
e 394 449
e 394 450
e 394 451
e 394 452
e 394 453
e 394 454
e 394 455
e 394 456
e 394 457
e 394 458
e 394 459
e 394 460
e 394 461
e 394 462
e 394 463
e 394 464
e 394 465
e 394 466
e 394 467
e 394 468
e 394 469
e 394 470
e 394 471
e 394 472
e 394 473
e 394 474
e 394 475
e 394 476
e 477 478
e 477 479
e 477 480
e 477 481
e 477 482
e 477 483
e 477 484
e 477 485
e 477 486
e 477 487
e 477 488
e 477 489
e 477 490
e 477 491
e 477 492
e 477 493
e 477 494
e 477 495
e 477 496
e 477 497
e 477 498
e 477 499
e 477 500
e 477 501
e 477 502
e 477 503
e 477 504
e 477 505
e 477 506
e 477 507
e 477 508
e 477 509
e 477 510
e 477 511
e 477 512
e 477 513
e 477 514
e 477 515
e 477 516
e 477 517
e 477 518
e 477 519
e 477 520
e 477 521
e 477 522
e 477 523
e 477 524
e 477 525
e 477 526
e 477 527
e 477 528
e 477 529
e 477 530
e 477 531
e 477 532
e 477 533
e 477 534
e 477 535
e 477 536
e 477 537
e 477 538
e 477 539
e 477 540
e 477 541
e 477 542
e 477 543
e 477 544
e 477 545
e 477 546
e 477 547
e 477 548
e 477 549
e 477 550
e 477 551
e 477 552
e 477 553
e 477 554
e 477 555
e 477 556
e 477 557
e 477 558
e 477 559
e 477 560
e 477 561
e 477 562
e 477 563
e 477 564
e 477 565
e 477 566
e 477 567
e 568 569
e 568 570
e 568 571
e 568 572
e 568 573
e 568 574
e 568 575
e 568 576
e 568 577
e 568 578
e 568 579
e 568 580
e 568 581
e 568 582
e 568 583
e 568 584
e 568 585
e 568 586
e 568 587
e 568 588
e 568 589
e 568 590
e 568 591
e 568 592
e 568 593
e 568 594
e 568 595
e 568 596
e 568 597
e 568 598
e 568 599
e 568 600
e 568 601
e 568 602
e 568 603
e 568 604
e 568 605
e 568 606
e 568 607
e 568 608
e 568 609
e 568 610
e 568 611
e 568 612
e 568 613
e 568 614
e 568 615
e 568 616
e 568 617
e 568 618
e 568 619
e 568 620
e 568 621
e 568 622
e 568 623
e 568 624
e 568 625
e 568 626
e 568 627
e 568 628
e 568 629
e 568 630
e 568 631
e 568 632
e 568 633
e 568 634
e 568 635
e 568 636
e 568 637
e 568 638
e 568 639
e 568 640
e 568 641
e 568 642
e 568 643
e 568 644
e 568 645
e 646 647
e 646 648
e 646 649
e 646 650
e 646 651
e 646 652
e 646 653
e 646 654
e 646 655
e 646 656
e 646 657
e 646 658
e 646 659
e 646 660
e 646 661
e 646 662
e 646 663
e 646 664
e 646 665
e 646 666
e 646 667
e 646 668
e 646 669
e 646 670
e 646 671
e 646 672
e 646 673
e 646 674
e 646 675
e 646 676
e 646 677
e 646 678
e 646 679
e 646 680
e 646 681
e 646 682
e 646 683
e 684 685
e 684 686
e 684 687
e 684 688
e 684 689
e 684 690
e 684 691
e 684 692
e 684 693
e 684 694
e 684 695
e 684 696
e 684 697
e 684 698
e 684 699
e 684 700
e 684 701
e 684 702
e 684 703
e 684 704
e 684 705
e 684 706
e 684 707
e 684 708
e 684 709
e 684 710
e 684 711
e 684 712
e 684 713
e 684 714
e 684 715
e 684 716
e 684 717
e 684 718
e 684 719
e 684 720
e 684 721
e 684 722
e 684 723
e 684 724
e 684 725
e 684 726
e 684 727
e 684 728
e 684 729
e 684 730
e 684 731
e 684 732
e 684 733
e 684 734
e 684 735
e 684 736
e 684 737
e 684 738
e 684 739
e 684 740
e 684 741
e 684 742
e 684 743
e 684 744
e 684 745
e 684 746
e 684 747
e 684 748
e 684 749
e 684 750
e 684 751
e 684 752
e 684 753
e 684 754
e 684 755
e 684 756
e 684 757
e 684 758
e 684 759
e 684 760
e 684 761
e 684 762
e 763 764
e 763 765
e 763 766
e 763 767
e 763 768
e 763 769
e 763 770
e 763 771
e 763 772
e 763 773
e 763 774
e 763 775
e 763 776
e 763 777
e 763 778
e 763 779
e 763 780
e 763 781
e 763 782
e 763 783
e 763 784
e 763 785
e 763 786
e 763 787
e 763 788
e 763 789
e 763 790
e 763 791
e 763 792
e 763 793
e 763 794
e 763 795
e 763 796
e 763 797
e 763 798
e 763 799
e 763 800
e 763 801
e 763 802
e 763 803
e 763 804
e 763 805
e 763 806
e 763 807
e 763 808
e 763 809
e 763 810
e 763 811
e 763 812
e 763 813
e 763 814
e 763 815
e 763 816
e 763 817
e 763 818
e 763 819
e 763 820
e 763 821
e 763 822
e 763 823
e 763 824
e 763 825
e 763 826
e 827 828
e 827 829
e 827 830
e 827 831
e 827 832
e 827 833
e 827 834
e 827 835
e 827 836
e 827 837
e 827 838
e 827 839
e 827 840
e 827 841
e 827 842
e 827 843
e 827 844
e 827 845
e 827 846
e 827 847
e 827 848
e 827 849
e 850 851
e 850 852
e 850 853
e 850 854
e 850 855
e 850 856
e 850 857
e 850 858
e 850 859
e 850 860
e 850 861
e 850 862
e 850 863
e 850 864
e 850 865
e 850 866
e 850 867
e 850 868
e 850 869
e 850 870
e 850 871
e 850 872
e 850 873
e 850 874
e 850 875
e 850 876
e 850 877
e 850 878
e 850 879
e 850 880
e 850 881
e 850 882
e 850 883
e 850 884
e 850 885
e 850 886
e 850 887
e 850 888
e 850 889
e 850 890
e 850 891
e 850 892
e 850 893
e 850 894
e 850 895
e 850 896
e 850 897
e 850 898
e 850 899
e 850 900
e 850 901
e 850 902
e 850 903
e 850 904
e 850 905
e 850 906
e 850 907
e 850 908
e 850 909
e 850 910
e 850 911
e 850 912
e 850 913
e 850 914
e 850 915
e 850 916
e 850 917
e 850 918
e 919 920
e 919 921
e 919 922
e 919 923
e 919 924
e 919 925
e 919 926
e 919 927
e 919 928
e 919 929
e 919 930
e 919 931
e 919 932
e 919 933
e 919 934
e 919 935
e 919 936
e 919 937
e 919 938
e 919 939
e 919 940
e 919 941
e 919 942
e 919 943
e 919 944
e 919 945
e 919 946
e 919 947
e 919 948
e 919 949
e 919 950
e 919 951
e 919 952
e 919 953
e 919 954
e 919 955
e 919 956
e 919 957
e 919 958
e 919 959
e 919 960
e 919 961
e 919 962
e 919 963
e 919 964
e 919 965
e 919 966
e 919 967
e 919 968
e 919 969
e 919 970
e 919 971
e 919 972
e 919 973
e 919 974
e 919 975
e 919 976
e 919 977
e 919 978
e 919 979
e 919 980
e 919 981
e 919 982
e 919 983
e 919 984
e 919 985
e 919 986
e 919 987
e 919 988
e 919 989
e 919 990
e 919 991
e 919 992
e 919 993
e 919 994
e 919 995
e 996 997
e 996 998
e 996 999
e 996 1000
e 996 1001
e 996 1002
e 996 1003
e 996 1004
e 996 1005
e 996 1006
e 996 1007
e 996 1008
e 996 1009
e 996 1010
e 996 1011
e 996 1012
e 996 1013
e 996 1014
e 996 1015
e 996 1016
e 996 1017
e 996 1018
e 996 1019
e 996 1020
e 996 1021
e 996 1022
e 996 1023
e 996 1024
e 996 1025
e 996 1026
e 996 1027
e 996 1028
e 996 1029
e 996 1030
e 996 1031
e 996 1032
e 996 1033
e 996 1034
e 996 1035
e 996 1036
e 996 1037
e 996 1038
e 996 1039
e 996 1040
e 996 1041
e 996 1042
e 996 1043
e 996 1044
e 996 1045
e 996 1046
e 996 1047
e 996 1048
e 996 1049
e 996 1050
e 996 1051
e 996 1052
e 996 1053
e 996 1054
e 996 1055
e 996 1056
e 996 1057
e 996 1058
e 996 1059
e 996 1060
e 996 1061
e 996 1062
e 996 1063
e 996 1064
e 996 1065
e 996 1066
e 996 1067
e 996 1068
e 996 1069
e 996 1070
e 996 1071
e 996 1072
e 996 1073
e 996 1074
e 996 1075
e 996 1076
e 996 1077
e 996 1078
e 996 1079
e 996 1080
e 996 1081
e 1082 1083
e 1082 1084
e 1082 1085
e 1082 1086
e 1082 1087
e 1082 1088
e 1082 1089
e 1082 1090
e 1082 1091
e 1082 1092
e 1082 1093
e 1082 1094
e 1082 1095
e 1082 1096
e 1082 1097
e 1082 1098
e 1082 1099
e 1082 1100
e 1082 1101
e 1082 1102
e 1082 1103
e 1082 1104
e 1082 1105
e 1082 1106
e 1082 1107
e 1082 1108
e 1082 1109
e 1082 1110
e 1082 1111
e 1082 1112
e 1082 1113
e 1082 1114
e 1082 1115
e 1082 1116
e 1082 1117
e 1082 1118
e 1082 1119
e 1082 1120
e 1082 1121
e 1082 1122
e 1082 1123
e 1082 1124
e 1082 1125
e 1082 1126
e 1082 1127
e 1082 1128
e 1082 1129
e 1082 1130
e 1082 1131
e 1082 1132
e 1082 1133
e 1082 1134
e 1082 1135
e 1082 1136
e 1082 1137
e 1082 1138
e 1082 1139
e 1082 1140
e 1082 1141
e 1082 1142
e 1082 1143
e 1082 1144
e 1082 1145
e 1082 1146
e 1082 1147
e 1082 1148
e 1082 1149
e 1082 1150
e 1082 1151
e 1082 1152
e 1082 1153
e 1082 1154
e 1082 1155
e 1082 1156
e 1082 1157
e 1082 1158
e 1082 1159
e 1082 1160
e 1161 1162
e 1161 1163
e 1161 1164
e 1161 1165
e 1161 1166
e 1161 1167
e 1161 1168
e 1161 1169
e 1161 1170
e 1161 1171
e 1161 1172
e 1161 1173
e 1161 1174
e 1161 1175
e 1161 1176
e 1161 1177
e 1161 1178
e 1161 1179
e 1161 1180
e 1161 1181
e 1161 1182
e 1161 1183
e 1161 1184
e 1161 1185
e 1161 1186
e 1161 1187
e 1161 1188
e 1161 1189
e 1161 1190
e 1161 1191
e 1161 1192
e 1161 1193
e 1161 1194
e 1161 1195
e 1161 1196
e 1161 1197
e 1161 1198
e 1161 1199
e 1161 1200
e 1161 1201
e 1161 1202
e 1161 1203
e 1161 1204
e 1161 1205
e 1161 1206
e 1161 1207
e 1161 1208
e 1161 1209
e 1161 1210
e 1161 1211
e 1161 1212
e 1161 1213
e 1161 1214
e 1161 1215
e 1161 1216
e 1161 1217
e 1161 1218
e 1161 1219
e 1161 1220
e 1161 1221
e 1161 1222
e 1161 1223
e 1161 1224
e 1161 1225
e 1161 1226
e 1227 1228
e 1227 1229
e 1227 1230
e 1227 1231
e 1227 1232
e 1227 1233
e 1227 1234
e 1227 1235
e 1227 1236
e 1227 1237
e 1227 1238
e 1227 1239
e 1227 1240
e 1227 1241
e 1227 1242
e 1227 1243
e 1227 1244
e 1227 1245
e 1227 1246
e 1227 1247
e 1227 1248
e 1227 1249
e 1227 1250
e 1227 1251
e 1227 1252
e 1227 1253
e 1227 1254
e 1227 1255
e 1227 1256
e 1227 1257
e 1227 1258
e 1227 1259
e 1227 1260
e 1227 1261
e 1227 1262
e 1227 1263
e 1227 1264
e 1227 1265
e 1227 1266
e 1227 1267
e 1227 1268
e 1227 1269
e 1227 1270
e 1227 1271
e 1227 1272
e 1227 1273
e 1274 1275
e 1274 1276
e 1274 1277
e 1274 1278
e 1274 1279
e 1274 1280
e 1274 1281
e 1274 1282
e 1274 1283
e 1274 1284
e 1274 1285
e 1274 1286
e 1274 1287
e 1274 1288
e 1274 1289
e 1290 1291
e 1290 1292
e 1290 1293
e 1290 1294
e 1290 1295
e 1290 1296
e 1290 1297
e 1290 1298
e 1290 1299
e 1290 1300
e 1290 1301
e 1290 1302
e 1290 1303
e 1290 1304
e 1290 1305
e 1290 1306
e 1290 1307
e 1290 1308
e 1290 1309
e 1290 1310
e 1290 1311
e 1290 1312
e 1290 1313
e 1290 1314
e 1290 1315
e 1290 1316
e 1290 1317
e 1290 1318
e 1290 1319
e 1290 1320
e 1290 1321
e 1290 1322
e 1290 1323
e 1290 1324
e 1290 1325
e 1290 1326
e 1290 1327
e 1290 1328
e 1290 1329
e 1290 1330
e 1290 1331
e 1290 1332
e 1290 1333
e 1290 1334
e 1290 1335
e 1290 1336
e 1290 1337
e 1290 1338
e 1290 1339
e 1290 1340
e 1290 1341
e 1290 1342
e 1290 1343
e 1290 1344
e 1290 1345
e 1290 1346
e 1290 1347
e 1290 1348
e 1290 1349
e 1290 1350
e 1290 1351
e 1290 1352
e 1290 1353
e 1290 1354
e 1290 1355
e 1290 1356
e 1290 1357
e 1290 1358
e 1359 1360
e 1359 1361
e 1359 1362
e 1359 1363
e 1359 1364
e 1359 1365
e 1359 1366
e 1359 1367
e 1359 1368
e 1359 1369
e 1359 1370
e 1359 1371
e 1359 1372
e 1359 1373
e 1359 1374
e 1359 1375
e 1359 1376
e 1359 1377
e 1359 1378
e 1359 1379
e 1359 1380
e 1359 1381
e 1359 1382
e 1359 1383
e 1359 1384
e 1359 1385
e 1359 1386
e 1359 1387
e 1359 1388
e 1359 1389
e 1359 1390
e 1359 1391
e 1359 1392
e 1359 1393
e 1359 1394
e 1359 1395
e 1359 1396
e 1359 1397
e 1359 1398
e 1359 1399
e 1359 1400
e 1359 1401
e 1359 1402
e 1359 1403
e 1359 1404
e 1359 1405
e 1359 1406
e 1359 1407
e 1359 1408
e 1359 1409
e 1359 1410
e 1359 1411
e 1359 1412
e 1359 1413
e 1359 1414
e 1359 1415
e 1359 1416
e 1359 1417
e 1359 1418
e 1359 1419
e 1359 1420
e 1421 1422
e 1421 1423
e 1421 1424
e 1421 1425
e 1421 1426
e 1421 1427
e 1421 1428
e 1421 1429
e 1421 1430
e 1421 1431
e 1421 1432
e 1421 1433
e 1421 1434
e 1421 1435
e 1421 1436
e 1421 1437
e 1421 1438
e 1421 1439
e 1421 1440
e 1421 1441
e 1421 1442
e 1421 1443
e 1421 1444
e 1421 1445
e 1421 1446
e 1421 1447
e 1421 1448
e 1421 1449
e 1450 1451
e 1450 1452
e 1450 1453
e 1450 1454
e 1450 1455
e 1450 1456
e 1450 1457
e 1450 1458
e 1450 1459
e 1450 1460
e 1450 1461
e 1450 1462
e 1450 1463
e 1450 1464
e 1450 1465
e 1450 1466
e 1450 1467
e 1450 1468
e 1450 1469
e 1450 1470
e 1450 1471
e 1450 1472
e 1450 1473
e 1450 1474
e 1450 1475
e 1450 1476
e 1450 1477
e 1450 1478
e 1450 1479
e 1450 1480
e 1450 1481
e 1450 1482
e 1450 1483
e 1450 1484
e 1450 1485
e 1450 1486
e 1450 1487
e 1450 1488
e 1450 1489
e 1450 1490
e 1450 1491
e 1450 1492
e 1450 1493
e 1450 1494
e 1450 1495
e 1450 1496
e 1450 1497
e 1450 1498
e 1450 1499
e 1450 1500
e 1450 1501
e 1450 1502
e 1450 1503
e 1504 1505
e 1504 1506
e 1504 1507
e 1504 1508
e 1504 1509
e 1504 1510
e 1504 1511
e 1504 1512
e 1504 1513
e 1504 1514
e 1504 1515
e 1504 1516
e 1504 1517
e 1504 1518
e 1504 1519
e 1504 1520
e 1504 1521
e 1504 1522
e 1504 1523
e 1504 1524
e 1504 1525
e 1504 1526
e 1504 1527
e 1504 1528
e 1504 1529
e 1504 1530
e 1504 1531
e 1504 1532
e 1504 1533
e 1504 1534
e 1504 1535
e 1504 1536
e 1504 1537
e 1504 1538
e 1504 1539
e 1504 1540
e 1504 1541
e 1504 1542
e 1504 1543
e 1504 1544
e 1504 1545
e 1504 1546
e 1504 1547
e 1504 1548
e 1504 1549
e 1504 1550
e 1504 1551
e 1504 1552
e 1504 1553
e 1554 1555
e 1554 1556
e 1554 1557
e 1554 1558
e 1554 1559
e 1554 1560
e 1554 1561
e 1554 1562
e 1554 1563
e 1554 1564
e 1554 1565
e 1554 1566
e 1554 1567
e 1554 1568
e 1554 1569
e 1554 1570
e 1554 1571
e 1554 1572
e 1554 1573
e 1554 1574
e 1554 1575
e 1554 1576
e 1554 1577
e 1554 1578
e 1554 1579
e 1554 1580
e 1554 1581
e 1554 1582
e 1554 1583
e 1554 1584
e 1554 1585
e 1554 1586
e 1554 1587
e 1554 1588
e 1554 1589
e 1554 1590
e 1554 1591
e 1554 1592
e 1554 1593
e 1554 1594
e 1554 1595
e 1554 1596
e 1554 1597
e 1554 1598
e 1554 1599
e 1554 1600
e 1554 1601
e 1554 1602
e 1554 1603
e 1554 1604
e 1554 1605
e 1554 1606
e 1554 1607
e 1554 1608
e 1554 1609
e 1554 1610
e 1554 1611
e 1554 1612
e 1554 1613
e 1554 1614
e 1554 1615
e 1554 1616
e 1554 1617
e 1554 1618
e 1554 1619
e 1554 1620
e 1554 1621
e 1554 1622
e 1554 1623
e 1554 1624
e 1554 1625
e 1554 1626
e 1554 1627
e 1554 1628
e 1554 1629
e 1554 1630
e 1554 1631
e 1554 1632
e 1554 1633
e 1554 1634
e 1554 1635
e 1636 1637
e 1636 1638
e 1636 1639
e 1636 1640
e 1636 1641
e 1636 1642
e 1636 1643
e 1636 1644
e 1636 1645
e 1636 1646
e 1636 1647
e 1636 1648
e 1636 1649
e 1636 1650
e 1636 1651
e 1636 1652
e 1636 1653
e 1636 1654
e 1636 1655
e 1636 1656
e 1657 1658
e 1657 1659
e 1657 1660
e 1657 1661
e 1657 1662
e 1657 1663
e 1657 1664
e 1657 1665
e 1657 1666
e 1657 1667
e 1657 1668
e 1657 1669
e 1657 1670
e 1657 1671
e 1657 1672
e 1657 1673
e 1657 1674
e 1657 1675
e 1657 1676
e 1657 1677
e 1657 1678
e 1679 1680
e 1679 1681
e 1679 1682
e 1679 1683
e 1679 1684
e 1679 1685
e 1679 1686
e 1679 1687
e 1679 1688
e 1679 1689
e 1679 1690
e 1679 1691
e 1679 1692
e 1679 1693
e 1679 1694
e 1679 1695
e 1679 1696
e 1679 1697
e 1679 1698
e 1679 1699
e 1679 1700
e 1679 1701
e 1679 1702
e 1679 1703
e 1679 1704
e 1679 1705
e 1679 1706
e 1679 1707
e 1679 1708
e 1679 1709
e 1679 1710
e 1679 1711
e 1679 1712
e 1679 1713
e 1679 1714
e 1679 1715
e 1679 1716
e 1679 1717
e 1679 1718
e 1679 1719
e 1679 1720
e 1679 1721
e 1679 1722
e 1679 1723
e 1679 1724
e 1679 1725
e 1679 1726
e 1679 1727
e 1679 1728
e 1679 1729
e 1679 1730
e 1679 1731
e 1679 1732
e 1679 1733
e 1679 1734
e 1679 1735
e 1679 1736
e 1679 1737
e 1679 1738
e 1679 1739
e 1679 1740
e 1679 1741
e 1679 1742
e 1679 1743
e 1679 1744
e 1679 1745
e 1679 1746
e 1679 1747
e 1679 1748
e 1679 1749
e 1679 1750
e 1679 1751
e 1679 1752
e 1679 1753
e 1679 1754
e 1679 1755
e 1679 1756
e 1679 1757
e 1679 1758
e 1679 1759
e 1679 1760
e 1761 1762
e 1761 1763
e 1761 1764
e 1761 1765
e 1761 1766
e 1761 1767
e 1761 1768
e 1761 1769
e 1761 1770
e 1761 1771
e 1761 1772
e 1761 1773
e 1761 1774
e 1761 1775
e 1761 1776
e 1761 1777
e 1761 1778
e 1761 1779
e 1761 1780
e 1761 1781
e 1761 1782
e 1761 1783
e 1761 1784
e 1761 1785
e 1761 1786
e 1761 1787
e 1761 1788
e 1761 1789
e 1761 1790
e 1761 1791
e 1761 1792
e 1761 1793
e 1761 1794
e 1761 1795
e 1761 1796
e 1761 1797
e 1761 1798
e 1761 1799
e 1761 1800
e 1761 1801
e 1761 1802
e 1761 1803
e 1761 1804
e 1761 1805
e 1761 1806
e 1761 1807
e 1761 1808
e 1761 1809
e 1761 1810
e 1761 1811
e 1761 1812
e 1761 1813
e 1761 1814
e 1761 1815
e 1761 1816
e 1761 1817
e 1761 1818
e 1761 1819
e 1761 1820
e 1761 1821
e 1761 1822
e 1761 1823
e 1761 1824
e 1761 1825
e 1761 1826
e 1761 1827
e 1761 1828
e 1761 1829
e 1761 1830
e 1761 1831
e 1832 1833
e 1832 1834
e 1832 1835
e 1832 1836
e 1832 1837
e 1832 1838
e 1832 1839
e 1832 1840
e 1832 1841
e 1832 1842
e 1832 1843
e 1832 1844
e 1832 1845
e 1832 1846
e 1832 1847
e 1832 1848
e 1832 1849
e 1832 1850
e 1832 1851
e 1832 1852
e 1832 1853
e 1832 1854
e 1832 1855
e 1832 1856
e 1832 1857
e 1832 1858
e 1832 1859
e 1832 1860
e 1832 1861
e 1832 1862
e 1832 1863
e 1832 1864
e 1832 1865
e 1832 1866
e 1832 1867
e 1832 1868
e 1832 1869
e 1832 1870
e 1832 1871
e 1832 1872
e 1832 1873
e 1832 1874
e 1832 1875
e 1832 1876
e 1832 1877
e 1832 1878
e 1879 1880
e 1879 1881
e 1879 1882
e 1879 1883
e 1879 1884
e 1879 1885
e 1879 1886
e 1879 1887
e 1879 1888
e 1879 1889
e 1879 1890
e 1879 1891
e 1879 1892
e 1879 1893
e 1879 1894
e 1879 1895
e 1879 1896
e 1879 1897
e 1879 1898
e 1879 1899
e 1879 1900
e 1879 1901
e 1879 1902
e 1879 1903
e 1879 1904
e 1879 1905
e 1879 1906
e 1879 1907
e 1879 1908
e 1879 1909
e 1879 1910
e 1879 1911
e 1879 1912
e 1879 1913
e 1879 1914
e 1879 1915
e 1879 1916
e 1879 1917
e 1879 1918
e 1879 1919
e 1879 1920
e 1879 1921
e 1879 1922
e 1879 1923
e 1879 1924
e 1879 1925
e 1879 1926
e 1879 1927
e 1879 1928
e 1879 1929
e 1930 1931
e 1930 1932
e 1930 1933
e 1930 1934
e 1930 1935
e 1930 1936
e 1930 1937
e 1930 1938
e 1930 1939
e 1930 1940
e 1930 1941
e 1930 1942
e 1930 1943
e 1930 1944
e 1930 1945
e 1930 1946
e 1930 1947
e 1930 1948
e 1930 1949
e 1930 1950
e 1930 1951
e 1952 1953
e 1952 1954
e 1952 1955
e 1952 1956
e 1952 1957
e 1952 1958
e 1952 1959
e 1952 1960
e 1952 1961
e 1952 1962
e 1952 1963
e 1952 1964
e 1952 1965
e 1952 1966
e 1952 1967
e 1952 1968
e 1952 1969
e 1952 1970
e 1952 1971
e 1952 1972
e 1952 1973
e 1952 1974
e 1952 1975
e 1952 1976
e 1952 1977
e 1952 1978
e 1952 1979
e 1952 1980
e 1952 1981
e 1952 1982
e 1952 1983
e 1952 1984
e 1952 1985
e 1952 1986
e 1952 1987
e 1952 1988
e 1952 1989
e 1952 1990
e 1952 1991
e 1952 1992
e 1952 1993
e 1952 1994
e 1952 1995
e 1952 1996
e 1952 1997
e 1952 1998
e 1952 1999
e 1952 2000
e 1952 2001
e 1952 2002
e 1952 2003
e 1952 2004
e 1952 2005
e 1952 2006
e 1952 2007
e 1952 2008
e 1952 2009
e 1952 2010
e 1952 2011
e 1952 2012
e 1952 2013
e 1952 2014
e 1952 2015
e 1952 2016
e 1952 2017
e 1952 2018
e 1952 2019
e 2020 2021
e 2020 2022
e 2020 2023
e 2020 2024
e 2020 2025
e 2020 2026
e 2020 2027
e 2020 2028
e 2020 2029
e 2020 2030
e 2020 2031
e 2020 2032
e 2020 2033
e 2020 2034
e 2020 2035
e 2020 2036
e 2020 2037
e 2020 2038
e 2020 2039
e 2040 2041
e 2040 2042
e 2040 2043
e 2040 2044
e 2040 2045
e 2040 2046
e 2040 2047
e 2040 2048
e 2040 2049
e 2040 2050
e 2040 2051
e 2040 2052
e 2040 2053
e 2040 2054
e 2040 2055
e 2040 2056
e 2040 2057
e 2040 2058
e 2040 2059
e 2040 2060
e 2040 2061
e 2040 2062
e 2040 2063
e 2040 2064
e 2040 2065
e 2040 2066
e 2040 2067
e 2040 2068
e 2040 2069
e 2040 2070
e 2040 2071
e 2040 2072
e 2040 2073
e 2074 2075
e 2074 2076
e 2074 2077
e 2074 2078
e 2074 2079
e 2074 2080
e 2074 2081
e 2074 2082
e 2074 2083
e 2074 2084
e 2074 2085
e 2074 2086
e 2074 2087
e 2074 2088
e 2074 2089
e 2074 2090
e 2074 2091
e 2074 2092
e 2074 2093
e 2074 2094
e 2074 2095
e 2074 2096
e 2074 2097
e 2074 2098
e 2074 2099
e 2074 2100
e 2074 2101
e 2074 2102
e 2074 2103
e 2074 2104
e 2074 2105
e 2074 2106
e 2074 2107
e 2074 2108
e 2074 2109
e 2074 2110
e 2074 2111
e 2074 2112
e 2074 2113
e 2074 2114
e 2074 2115
e 2074 2116
e 2074 2117
e 2074 2118
e 2074 2119
e 2074 2120
e 2074 2121
e 2074 2122
e 2074 2123
e 2074 2124
e 2074 2125
e 2074 2126
e 2127 2128
e 2127 2129
e 2127 2130
e 2127 2131
e 2127 2132
e 2127 2133
e 2127 2134
e 2127 2135
e 2127 2136
e 2127 2137
e 2127 2138
e 2127 2139
e 2127 2140
e 2141 2142
e 2141 2143
e 2141 2144
e 2141 2145
e 2141 2146
e 2141 2147
e 2141 2148
e 2141 2149
e 2141 2150
e 2141 2151
e 2141 2152
e 2141 2153
e 2141 2154
e 2141 2155
e 2141 2156
e 2141 2157
e 2141 2158
e 2141 2159
e 2141 2160
e 2141 2161
e 2141 2162
e 2141 2163
e 2141 2164
e 2141 2165
e 2141 2166
e 2141 2167
e 2141 2168
e 2141 2169
e 2141 2170
e 2141 2171
e 2141 2172
e 2141 2173
e 2141 2174
e 2141 2175
e 2141 2176
e 2141 2177
e 2141 2178
e 2141 2179
e 2141 2180
e 2141 2181
e 2141 2182
e 2141 2183
e 2141 2184
e 2141 2185
e 2141 2186
e 2141 2187
e 2141 2188
e 2141 2189
e 2141 2190
e 2141 2191
e 2141 2192
e 2141 2193
e 2141 2194
e 2141 2195
e 2141 2196
e 2141 2197
e 2141 2198
e 2141 2199
e 2141 2200
e 2141 2201
e 2141 2202
e 2141 2203
e 2141 2204
e 2141 2205
e 2141 2206
e 2141 2207
e 2141 2208
e 2141 2209
e 2141 2210
e 2141 2211
e 2141 2212
e 2141 2213
e 2141 2214
e 2141 2215
e 2141 2216
e 2141 2217
e 2141 2218
e 2141 2219
e 2141 2220
e 2221 2222
e 2221 2223
e 2221 2224
e 2221 2225
e 2221 2226
e 2221 2227
e 2221 2228
e 2221 2229
e 2221 2230
e 2221 2231
e 2221 2232
e 2221 2233
e 2221 2234
e 2221 2235
e 2221 2236
e 2221 2237
e 2221 2238
e 2221 2239
e 2221 2240
e 2221 2241
e 2221 2242
e 2221 2243
e 2221 2244
e 2221 2245
e 2221 2246
e 2221 2247
e 2221 2248
e 2221 2249
e 2221 2250
e 2221 2251
e 2221 2252
e 2221 2253
e 2221 2254
e 2221 2255
e 2221 2256
e 2221 2257
e 2221 2258
e 2221 2259
e 2221 2260
e 2221 2261
e 2221 2262
e 2221 2263
e 2221 2264
e 2221 2265
e 2221 2266
e 2221 2267
e 2221 2268
e 2269 2270
e 2269 2271
e 2269 2272
e 2269 2273
e 2269 2274
e 2269 2275
e 2269 2276
e 2269 2277
e 2269 2278
e 2269 2279
e 2269 2280
e 2269 2281
e 2269 2282
e 2269 2283
e 2269 2284
e 2269 2285
e 2269 2286
e 2269 2287
e 2269 2288
e 2269 2289
e 2269 2290
e 2269 2291
e 2269 2292
e 2269 2293
e 2269 2294
e 2269 2295
e 2269 2296
e 2269 2297
e 2269 2298
e 2269 2299
e 2269 2300
e 2269 2301
e 2269 2302
e 2269 2303
e 2269 2304
e 2269 2305
e 2269 2306
e 2269 2307
e 2269 2308
e 2269 2309
e 2269 2310
e 2269 2311
e 2269 2312
e 2269 2313
e 2269 2314
e 2269 2315
e 2269 2316
e 2269 2317
e 2269 2318
e 2269 2319
e 2269 2320
e 2269 2321
e 2269 2322
e 2269 2323
e 2269 2324
e 2269 2325
e 2326 2327
e 2326 2328
e 2326 2329
e 2326 2330
e 2326 2331
e 2326 2332
e 2326 2333
e 2326 2334
e 2326 2335
e 2326 2336
e 2326 2337
e 2326 2338
e 2326 2339
e 2326 2340
e 2326 2341
e 2326 2342
e 2326 2343
e 2326 2344
e 2326 2345
e 2326 2346
e 2326 2347
e 2326 2348
e 2326 2349
e 2326 2350
e 2326 2351
e 2326 2352
e 2326 2353
e 2326 2354
e 2326 2355
e 2326 2356
e 2326 2357
e 2326 2358
e 2326 2359
e 2326 2360
e 2326 2361
e 2326 2362
e 2326 2363
e 2326 2364
e 2326 2365
e 2326 2366
e 2326 2367
e 2326 2368
e 2326 2369
e 2326 2370
e 2326 2371
e 2326 2372
e 2326 2373
e 2326 2374
e 2326 2375
e 2326 2376
e 2326 2377
e 2326 2378
e 2326 2379
e 2326 2380
e 2326 2381
e 2326 2382
e 2326 2383
e 2326 2384
e 2326 2385
e 2326 2386
e 2326 2387
e 2326 2388
e 2326 2389
e 2326 2390
e 2326 2391
e 2326 2392
e 2326 2393
e 2326 2394
e 2326 2395
e 2326 2396
e 2326 2397
e 2326 2398
e 2326 2399
e 2326 2400
e 2326 2401
e 2326 2402
e 2326 2403
e 2326 2404
e 2326 2405
e 2326 2406
e 2326 2407
e 2326 2408
e 2326 2409
e 2326 2410
e 2326 2411
e 2326 2412
e 2326 2413
e 2326 2414
e 2326 2415
e 2326 2416
e 2417 2418
e 2417 2419
e 2417 2420
e 2417 2421
e 2417 2422
e 2417 2423
e 2417 2424
e 2417 2425
e 2417 2426
e 2417 2427
e 2417 2428
e 2417 2429
e 2417 2430
e 2417 2431
e 2417 2432
e 2417 2433
e 2417 2434
e 2417 2435
e 2417 2436
e 2417 2437
e 2417 2438
e 2417 2439
e 2417 2440
e 2417 2441
e 2417 2442
e 2417 2443
e 2417 2444
e 2417 2445
e 2417 2446
e 2417 2447
e 2417 2448
e 2417 2449
e 2417 2450
e 2417 2451
e 2417 2452
e 2417 2453
e 2417 2454
e 2417 2455
e 2417 2456
e 2417 2457
e 2417 2458
e 2417 2459
e 2417 2460
e 2417 2461
e 2417 2462
e 2417 2463
e 2417 2464
e 2417 2465
e 2417 2466
e 2417 2467
e 2417 2468
e 2417 2469
e 2417 2470
e 2417 2471
e 2417 2472
e 2417 2473
e 2417 2474
e 2417 2475
e 2417 2476
e 2417 2477
e 2417 2478
e 2417 2479
e 2417 2480
e 2417 2481
e 2417 2482
e 2483 2484
e 2483 2485
e 2483 2486
e 2483 2487
e 2483 2488
e 2483 2489
e 2483 2490
e 2483 2491
e 2483 2492
e 2483 2493
e 2483 2494
e 2483 2495
e 2483 2496
e 2483 2497
e 2483 2498
e 2483 2499
e 2483 2500
e 2483 2501
e 2483 2502
e 2483 2503
e 2483 2504
e 2483 2505
e 2483 2506
e 2483 2507
e 2483 2508
e 2483 2509
e 2483 2510
e 2483 2511
e 2483 2512
e 2483 2513
e 2483 2514
e 2483 2515
e 2483 2516
e 2483 2517
e 2483 2518
e 2483 2519
e 2483 2520
e 2483 2521
e 2483 2522
e 2483 2523
e 2483 2524
e 2483 2525
e 2483 2526
e 2483 2527
e 2483 2528
e 2483 2529
e 2483 2530
e 2483 2531
e 2483 2532
e 2483 2533
e 2483 2534
e 2483 2535
e 2483 2536
e 2483 2537
e 2483 2538
e 2483 2539
e 2483 2540
e 2483 2541
e 2542 2543
e 2542 2544
e 2542 2545
e 2542 2546
e 2542 2547
e 2542 2548
e 2542 2549
e 2542 2550
e 2542 2551
e 2542 2552
e 2542 2553
e 2542 2554
e 2542 2555
e 2542 2556
e 2542 2557
e 2542 2558
e 2542 2559
e 2542 2560
e 2542 2561
e 2542 2562
e 2542 2563
e 2542 2564
e 2542 2565
e 2542 2566
e 2542 2567
e 2542 2568
e 2542 2569
e 2542 2570
e 2542 2571
e 2542 2572
e 2542 2573
e 2542 2574
e 2542 2575
e 2542 2576
e 2542 2577
e 2542 2578
e 2542 2579
e 2542 2580
e 2542 2581
e 2542 2582
e 2542 2583
e 2542 2584
e 2542 2585
e 2542 2586
e 2542 2587
e 2542 2588
e 2542 2589
e 2542 2590
e 2542 2591
e 2542 2592
e 2542 2593
e 2542 2594
e 2542 2595
e 2542 2596
e 2542 2597
e 2542 2598
e 2599 2600
e 2599 2601
e 2599 2602
e 2599 2603
e 2599 2604
e 2599 2605
e 2599 2606
e 2599 2607
e 2599 2608
e 2599 2609
e 2599 2610
e 2599 2611
e 2599 2612
e 2599 2613
e 2599 2614
e 2599 2615
e 2599 2616
e 2599 2617
e 2599 2618
e 2599 2619
e 2599 2620
e 2599 2621
e 2599 2622
e 2599 2623
e 2599 2624
e 2599 2625
e 2599 2626
e 2599 2627
e 2599 2628
e 2599 2629
e 2599 2630
e 2599 2631
e 2599 2632
e 2599 2633
e 2599 2634
e 2599 2635
e 2599 2636
e 2599 2637
e 2599 2638
e 2599 2639
e 2599 2640
e 2599 2641
e 2599 2642
e 2599 2643
e 2599 2644
e 2599 2645
e 2599 2646
e 2599 2647
e 2648 2649
e 2648 2650
e 2648 2651
e 2648 2652
e 2648 2653
e 2648 2654
e 2648 2655
e 2648 2656
e 2648 2657
e 2648 2658
e 2648 2659
e 2648 2660
e 2648 2661
e 2648 2662
e 2648 2663
e 2648 2664
e 2648 2665
e 2648 2666
e 2648 2667
e 2648 2668
e 2648 2669
e 2648 2670
e 2648 2671
e 2648 2672
e 2648 2673
e 2648 2674
e 2648 2675
e 2648 2676
e 2648 2677
e 2648 2678
e 2648 2679
e 2648 2680
e 2648 2681
e 2648 2682
e 2648 2683
e 2648 2684
e 2648 2685
e 2648 2686
e 2648 2687
e 2648 2688
e 2648 2689
e 2648 2690
e 2648 2691
e 2648 2692
e 2693 2694
e 2693 2695
e 2693 2696
e 2693 2697
e 2693 2698
e 2693 2699
e 2693 2700
e 2693 2701
e 2693 2702
e 2693 2703
e 2693 2704
e 2693 2705
e 2693 2706
e 2693 2707
e 2693 2708
e 2693 2709
e 2693 2710
e 2693 2711
e 2693 2712
e 2693 2713
e 2693 2714
e 2693 2715
e 2693 2716
e 2693 2717
e 2693 2718
e 2693 2719
e 2693 2720
e 2693 2721
e 2693 2722
e 2693 2723
e 2693 2724
e 2693 2725
e 2693 2726
e 2693 2727
e 2693 2728
e 2693 2729
e 2693 2730
e 2693 2731
e 2693 2732
e 2693 2733
e 2693 2734
e 2693 2735
e 2693 2736
e 2693 2737
e 2693 2738
e 2693 2739
e 2693 2740
e 2693 2741
e 2693 2742
e 2693 2743
e 2693 2744
e 2693 2745
e 2746 2747
e 2746 2748
e 2746 2749
e 2746 2750
e 2746 2751
e 2746 2752
e 2746 2753
e 2746 2754
e 2746 2755
e 2746 2756
e 2746 2757
e 2746 2758
e 2746 2759
e 2746 2760
e 2746 2761
e 2746 2762
e 2746 2763
e 2746 2764
e 2746 2765
e 2746 2766
e 2746 2767
e 2746 2768
e 2746 2769
e 2746 2770
e 2746 2771
e 2746 2772
e 2773 2774
e 2773 2775
e 2773 2776
e 2773 2777
e 2773 2778
e 2773 2779
e 2773 2780
e 2773 2781
e 2773 2782
e 2773 2783
e 2773 2784
e 2773 2785
e 2773 2786
e 2773 2787
e 2773 2788
e 2773 2789
e 2773 2790
e 2773 2791
e 2773 2792
e 2773 2793
e 2773 2794
e 2773 2795
e 2773 2796
e 2773 2797
e 2773 2798
e 2773 2799
e 2773 2800
e 2773 2801
e 2773 2802
e 2773 2803
e 2773 2804
e 2773 2805
e 2773 2806
e 2773 2807
e 2773 2808
e 2773 2809
e 2773 2810
e 2773 2811
e 2773 2812
e 2773 2813
e 2773 2814
e 2773 2815
e 2773 2816
e 2773 2817
e 2773 2818
e 2773 2819
e 2773 2820
e 2773 2821
e 2773 2822
e 2823 2824
e 2823 2825
e 2823 2826
e 2823 2827
e 2823 2828
e 2823 2829
e 2823 2830
e 2823 2831
e 2823 2832
e 2823 2833
e 2823 2834
e 2823 2835
e 2823 2836
e 2823 2837
e 2823 2838
e 2823 2839
e 2823 2840
e 2823 2841
e 2823 2842
e 2823 2843
e 2823 2844
e 2823 2845
e 2823 2846
e 2823 2847
e 2823 2848
e 2823 2849
e 2823 2850
e 2823 2851
e 2823 2852
e 2823 2853
e 2823 2854
e 2823 2855
e 2823 2856
e 2823 2857
e 2823 2858
e 2823 2859
e 2823 2860
e 2823 2861
e 2823 2862
e 2823 2863
e 2823 2864
e 2865 2866
e 2865 2867
e 2865 2868
e 2865 2869
e 2865 2870
e 2865 2871
e 2865 2872
e 2865 2873
e 2865 2874
e 2865 2875
e 2865 2876
e 2865 2877
e 2865 2878
e 2865 2879
e 2865 2880
e 2865 2881
e 2865 2882
e 2865 2883
e 2865 2884
e 2865 2885
e 2865 2886
e 2865 2887
e 2865 2888
e 2865 2889
e 2865 2890
e 2865 2891
e 2865 2892
e 2865 2893
e 2865 2894
e 2865 2895
e 2865 2896
e 2865 2897
e 2865 2898
e 2865 2899
e 2865 2900
e 2865 2901
e 2865 2902
e 2865 2903
e 2865 2904
e 2865 2905
e 2865 2906
e 2865 2907
e 2865 2908
e 2865 2909
e 2865 2910
e 2865 2911
e 2865 2912
e 2865 2913
e 2865 2914
e 2865 2915
e 2865 2916
e 2865 2917
e 2865 2918
e 2865 2919
e 2865 2920
e 2865 2921
e 2865 2922
e 2865 2923
e 2865 2924
e 2865 2925
e 2865 2926
e 2865 2927
e 2865 2928
e 2865 2929
e 2865 2930
e 2865 2931
e 2865 2932
e 2865 2933
e 2865 2934
e 2865 2935
e 2865 2936
e 2865 2937
e 2865 2938
e 2865 2939
e 2865 2940
e 2865 2941
e 2865 2942
e 2865 2943
e 2865 2944
e 2865 2945
e 2865 2946
e 2865 2947
e 2865 2948
e 2865 2949
e 2865 2950
e 2865 2951
e 2865 2952
e 2953 2954
e 2953 2955
e 2953 2956
e 2953 2957
e 2953 2958
e 2953 2959
e 2953 2960
e 2953 2961
e 2953 2962
e 2953 2963
e 2953 2964
e 2953 2965
e 2953 2966
e 2953 2967
e 2953 2968
e 2953 2969
e 2953 2970
e 2953 2971
e 2953 2972
e 2953 2973
e 2953 2974
e 2953 2975
e 2953 2976
e 2953 2977
e 2953 2978
e 2953 2979
e 2953 2980
e 2953 2981
e 2953 2982
e 2953 2983
e 2953 2984
e 2953 2985
e 2953 2986
e 2953 2987
e 2953 2988
e 2953 2989
e 2953 2990
e 2953 2991
e 2992 2993
e 2992 2994
e 2992 2995
e 2992 2996
e 2992 2997
e 2992 2998
e 2992 2999
e 2992 3000
e 2992 3001
e 2992 3002
e 2992 3003
e 2992 3004
